lbl,CUST NO.,READY TIME,XCOORD.,YCOORD.,DEMAND,DUE DATE,SERVICE TIME
15,190,55,28,33,20,162,90
15,5,87,25,26,20,221,90
15,10,194,24,26,20,296,90
15,193,286,21,26,20,389,90
15,46,363,21,25,20,494,90
15,128,466,22,22,10,577,90
15,106,561,24,24,10,669,90
15,167,643,30,24,20,778,90
15,34,743,30,27,10,865,90
15,95,842,29,28,10,948,90
15,158,929,30,31,20,1047,90
